(set-info :smt-lib-version 2.6)
(set-logic UF)
(set-info :source |Benchmarks from the paper: "Extending Sledgehammer with SMT Solvers" by Jasmin Blanchette, Sascha Bohme, and Lawrence C. Paulson, CADE 2011.  Translated to SMT2 by Andrew Reynolds and Morgan Deters.|)
(set-info :category "industrial")
(set-info :status unknown)
(declare-sort S1 0)
(declare-sort S2 0)
(declare-sort S3 0)
(declare-sort S4 0)
(declare-sort S5 0)
(declare-sort S6 0)
(declare-sort S7 0)
(declare-sort S8 0)
(declare-sort S9 0)
(declare-fun f1 () S1)
(declare-fun f2 () S1)
(declare-fun f3 (S2 S3) S3)
(declare-fun f4 (S4 S3) S2)
(declare-fun f5 () S4)
(declare-fun f6 () S3)
(declare-fun f7 (S5 S6) S3)
(declare-fun f8 () S5)
(declare-fun f9 () S6)
(declare-fun f10 () S4)
(declare-fun f11 () S2)
(declare-fun f12 () S2)
(declare-fun f13 () S2)
(declare-fun f14 () S3)
(declare-fun f15 () S3)
(declare-fun f16 (S3) S1)
(declare-fun f17 (S3 S3) S1)
(declare-fun f18 () S3)
(declare-fun f19 (S3 S3) S1)
(declare-fun f20 (S3) S1)
(declare-fun f21 () S6)
(declare-fun f22 (S3 S3) S1)
(declare-fun f23 (S7 S6) S6)
(declare-fun f24 (S8 S6) S7)
(declare-fun f25 () S8)
(declare-fun f26 () S6)
(declare-fun f27 (S9 S3) S6)
(declare-fun f28 () S9)
(declare-fun f29 () S8)
(declare-fun f30 () S3)
(declare-fun f31 () S3)
(declare-fun f32 (S6 S6) S1)
(declare-fun f33 (S6 S6) S1)
(assert (not (= f1 f2)))
(assert (let ((?v_0 (f3 (f4 f5 f6) (f7 f8 f9)))) (not (or (= ?v_0 f6) (= ?v_0 (f3 (f4 f5 (f3 (f4 f10 (f3 f11 (f3 f12 (f3 f12 (f3 f13 f14))))) f15)) f6))))))
(assert (= (f16 (f3 (f4 f5 (f3 (f4 f10 (f3 f11 (f3 f12 (f3 f12 (f3 f13 f14))))) f15)) f6)) f1))
(assert (let ((?v_0 (f3 (f4 f5 f6) (f7 f8 f9)))) (and (= (f17 f18 ?v_0) f1) (= (f19 ?v_0 (f3 (f4 f5 (f3 (f4 f10 (f3 f11 (f3 f12 (f3 f12 (f3 f13 f14))))) f15)) f6)) f1))))
(assert (= (f16 (f3 (f4 f5 (f3 (f4 f10 (f3 f11 (f3 f12 (f3 f12 (f3 f13 f14))))) f15)) f6)) f1))
(assert (let ((?v_0 (f3 (f4 f5 f6) (f7 f8 f9)))) (and (= (f17 f18 ?v_0) f1) (= (f19 ?v_0 (f3 (f4 f5 (f3 (f4 f10 (f3 f11 (f3 f12 (f3 f12 (f3 f13 f14))))) f15)) f6)) f1))))
(assert (not (= (f3 (f4 f5 f6) (f7 f8 f9)) f18)))
(assert (= (f19 (f3 (f4 f5 f6) (f7 f8 f9)) (f3 (f4 f5 (f3 (f4 f10 (f3 f11 (f3 f12 (f3 f12 (f3 f13 f14))))) f15)) f6)) f1))
(assert (let ((?v_0 (f3 (f4 f5 f6) (f7 f8 f9)))) (let ((?v_1 (f4 f10 ?v_0))) (= (f19 (f3 ?v_1 ?v_0) (f3 ?v_1 (f3 (f4 f5 (f3 (f4 f10 (f3 f11 (f3 f12 (f3 f12 (f3 f13 f14))))) f15)) f6))) f1))))
(assert (not (= (f20 (f3 (f4 f10 (f3 (f4 f5 (f3 (f4 f10 (f3 f11 (f3 f12 (f3 f12 (f3 f13 f14))))) f15)) f6)) (f3 (f4 f5 f6) (f7 f8 f21)))) f1)))
(assert (let ((?v_1 (f3 (f4 f5 f6) (f7 f8 f9))) (?v_0 (f3 (f4 f5 (f3 (f4 f10 (f3 f11 (f3 f12 (f3 f12 (f3 f13 f14))))) f15)) f6))) (not (=> (= (f22 ?v_1 ?v_0) f1) (not (= (f20 (f3 (f4 f10 ?v_0) ?v_1)) f1))))))
(assert (forall ((?v0 S3)) (= (f3 (f4 f5 f6) (f3 f11 ?v0)) (f3 f11 (f3 (f4 f5 (f3 f13 f14)) ?v0)))))
(assert (forall ((?v0 S3)) (= (f3 (f4 f5 (f3 f11 ?v0)) f6) (f3 f11 (f3 (f4 f5 ?v0) (f3 f13 f14))))))
(assert (= (f3 (f4 f5 f6) f6) (f3 f11 (f3 f12 (f3 f13 f14)))))
(assert (= (f3 (f4 f5 f6) f6) (f3 f11 (f3 f12 (f3 f13 f14)))))
(assert (= (f23 (f24 f25 f26) f26) (f27 f28 (f3 f12 (f3 f13 f14)))))
(assert (forall ((?v0 S3)) (= (f3 (f4 f10 ?v0) (f3 f11 (f3 f12 (f3 f13 f14)))) (f3 (f4 f5 ?v0) ?v0))))
(assert (forall ((?v0 S3)) (= (f3 (f4 f10 ?v0) (f3 f11 (f3 f12 (f3 f13 f14)))) (f3 (f4 f5 ?v0) ?v0))))
(assert (forall ((?v0 S6)) (= (f23 (f24 f29 ?v0) (f27 f28 (f3 f12 (f3 f13 f14)))) (f23 (f24 f25 ?v0) ?v0))))
(assert (forall ((?v0 S3)) (= (f3 (f4 f10 (f3 f11 (f3 f12 (f3 f13 f14)))) ?v0) (f3 (f4 f5 ?v0) ?v0))))
(assert (forall ((?v0 S3)) (= (f3 (f4 f10 (f3 f11 (f3 f12 (f3 f13 f14)))) ?v0) (f3 (f4 f5 ?v0) ?v0))))
(assert (forall ((?v0 S6)) (= (f23 (f24 f29 (f27 f28 (f3 f12 (f3 f13 f14)))) ?v0) (f23 (f24 f25 ?v0) ?v0))))
(assert (forall ((?v0 S3)) (= (f3 (f4 f10 (f3 (f4 f5 f6) f6)) (f3 f11 ?v0)) (f3 f11 (f3 f12 ?v0)))))
(assert (= (f20 (f3 (f4 f10 (f3 (f4 f5 (f3 (f4 f10 (f3 f11 (f3 f12 (f3 f12 (f3 f13 f14))))) f15)) f6)) f30)) f1))
(assert (= (f22 f6 f31) f1))
(assert (= (f22 f18 (f3 (f4 f5 f6) (f7 f8 f9))) f1))
(assert (= (f22 f30 (f3 (f4 f5 f6) (f7 f8 f9))) f1))
(assert (= (f32 f21 f9) f1))
(assert (= (f22 f18 (f3 (f4 f5 (f3 (f4 f10 (f3 f11 (f3 f12 (f3 f12 (f3 f13 f14))))) f15)) f6)) f1))
(assert (let ((?v_1 (f3 (f4 f5 f6) (f7 f8 f9))) (?v_0 (f3 (f4 f5 (f3 (f4 f10 (f3 f11 (f3 f12 (f3 f12 (f3 f13 f14))))) f15)) f6))) (and (= (f22 ?v_1 ?v_0) f1) (= (f20 (f3 (f4 f10 ?v_0) ?v_1)) f1))))
(assert (forall ((?v0 S3)) (= (f17 ?v0 ?v0) f1)))
(assert (forall ((?v0 S3) (?v1 S3)) (or (= (f17 ?v0 ?v1) f1) (= (f17 ?v1 ?v0) f1))))
(assert (forall ((?v0 S3) (?v1 S3)) (= (= (f22 ?v0 ?v1) f1) (and (= (f17 ?v0 ?v1) f1) (not (= ?v0 ?v1))))))
(assert (forall ((?v0 S3) (?v1 S3)) (or (= (f22 ?v0 ?v1) f1) (or (= ?v0 ?v1) (= (f22 ?v1 ?v0) f1)))))
(assert (forall ((?v0 S3) (?v1 S3)) (= (= (f22 (f3 f11 ?v0) (f3 f11 ?v1)) f1) (= (f22 ?v0 ?v1) f1))))
(assert (forall ((?v0 S3) (?v1 S3)) (=> (= (f17 f18 ?v0) f1) (=> (= (f17 f18 ?v1) f1) (=> (= (f19 ?v0 ?v1) f1) (=> (= (f19 ?v1 ?v0) f1) (= ?v0 ?v1)))))))
(assert (forall ((?v0 S3) (?v1 S3)) (=> (= (f22 f18 ?v0) f1) (=> (= (f22 ?v0 ?v1) f1) (not (= (f19 ?v1 ?v0) f1))))))
(assert (forall ((?v0 S3) (?v1 S3)) (=> (= (f19 ?v0 ?v1) f1) (=> (= (f22 f18 ?v1) f1) (= (f17 ?v0 ?v1) f1)))))
(assert (forall ((?v0 S3) (?v1 S3) (?v2 S3)) (=> (= (f17 ?v0 ?v1) f1) (=> (= (f17 ?v1 ?v2) f1) (= (f17 ?v0 ?v2) f1)))))
(assert (forall ((?v0 S3) (?v1 S3)) (=> (= (f17 ?v0 ?v1) f1) (=> (= (f17 ?v1 ?v0) f1) (= ?v0 ?v1)))))
(assert (forall ((?v0 S3)) (= (= (f17 f6 ?v0) f1) (= (f22 f18 ?v0) f1))))
(assert (forall ((?v0 S6)) (= (= (f17 (f7 f8 ?v0) f18) f1) (= ?v0 f21))))
(assert (forall ((?v0 S3) (?v1 S3)) (let ((?v_1 (f3 f11 ?v0)) (?v_0 (f3 f11 ?v1))) (= (= (f17 ?v_1 ?v_0) f1) (not (= (f22 ?v_0 ?v_1) f1))))))
(assert (forall ((?v0 S3) (?v1 S3)) (let ((?v_1 (f27 f28 ?v0)) (?v_0 (f27 f28 ?v1))) (= (= (f33 ?v_1 ?v_0) f1) (not (= (f32 ?v_0 ?v_1) f1))))))
(assert (forall ((?v0 S3)) (= (= (f22 (f3 (f4 f5 ?v0) ?v0) f18) f1) (= (f22 ?v0 f18) f1))))
(assert (forall ((?v0 S3)) (= (= (f22 (f3 f13 ?v0) f18) f1) (= (f22 ?v0 f18) f1))))
(assert (= (= (f22 f14 f18) f1) false))
(assert (forall ((?v0 S3)) (= (= (f22 (f3 f12 ?v0) f18) f1) (= (f22 ?v0 f18) f1))))
(assert (= (f22 f18 f6) f1))
(assert (forall ((?v0 S3) (?v1 S3) (?v2 S3) (?v3 S3)) (=> (= (f22 ?v0 ?v1) f1) (=> (= (f17 ?v2 ?v3) f1) (= (f22 (f3 (f4 f5 ?v0) ?v2) (f3 (f4 f5 ?v1) ?v3)) f1)))))
(assert (forall ((?v0 S3) (?v1 S3) (?v2 S3)) (let ((?v_0 (f4 f10 ?v2))) (=> (= (f22 ?v0 ?v1) f1) (=> (= (f22 f18 ?v2) f1) (= (f22 (f3 ?v_0 ?v0) (f3 ?v_0 ?v1)) f1))))))
(assert (forall ((?v0 S6)) (not (= (f22 (f7 f8 ?v0) f18) f1))))
(assert (forall ((?v0 S6)) (= (= (f7 f8 ?v0) f18) (= ?v0 f21))))
(assert (= (f7 f8 f21) f18))
(assert (forall ((?v0 S3) (?v1 S3)) (= (= (f22 (f3 f13 ?v0) (f3 f13 ?v1)) f1) (= (f22 ?v0 ?v1) f1))))
(assert (forall ((?v0 S3) (?v1 S3)) (= (= (f22 (f3 f13 ?v0) (f3 f13 ?v1)) f1) (= (f22 ?v0 ?v1) f1))))
(assert (= (= (f22 f14 f14) f1) false))
(assert (forall ((?v0 S3)) (= (= (f22 (f3 f11 ?v0) f18) f1) (= (f22 ?v0 f14) f1))))
(assert (forall ((?v0 S3)) (= (= (f22 f18 (f3 f11 ?v0)) f1) (= (f22 f14 ?v0) f1))))
(assert (forall ((?v0 S3) (?v1 S3)) (= (= (f22 (f3 f12 ?v0) (f3 f12 ?v1)) f1) (= (f22 ?v0 ?v1) f1))))
(assert (forall ((?v0 S3) (?v1 S3)) (= (= (f22 (f3 f12 ?v0) (f3 f12 ?v1)) f1) (= (f22 ?v0 ?v1) f1))))
(assert (forall ((?v0 S3) (?v1 S3)) (= (= (f22 (f3 f11 ?v0) (f3 f11 ?v1)) f1) (= (f22 ?v0 ?v1) f1))))
(assert (forall ((?v0 S3) (?v1 S3) (?v2 S3)) (=> (= (f22 ?v0 ?v1) f1) (= (f22 (f3 (f4 f5 ?v0) ?v2) (f3 (f4 f5 ?v1) ?v2)) f1))))
(assert (forall ((?v0 S3)) (=> (= (f17 f18 ?v0) f1) (= (f22 f18 (f3 (f4 f5 f6) ?v0)) f1))))
(assert (forall ((?v0 S3) (?v1 S3)) (= (= (f17 (f3 f11 ?v0) (f3 f11 ?v1)) f1) (= (f17 ?v0 ?v1) f1))))
(assert (forall ((?v0 S3)) (= (= (f17 (f3 f13 ?v0) f14) f1) (= (f22 ?v0 f14) f1))))
(assert (forall ((?v0 S3)) (= (= (f22 f14 (f3 f13 ?v0)) f1) (= (f17 f14 ?v0) f1))))
(assert (forall ((?v0 S3) (?v1 S3)) (= (= (f17 (f3 f13 ?v0) (f3 f12 ?v1)) f1) (= (f22 ?v0 ?v1) f1))))
(assert (forall ((?v0 S3) (?v1 S3)) (= (= (f17 (f3 f13 ?v0) (f3 f12 ?v1)) f1) (= (f22 ?v0 ?v1) f1))))
(assert (forall ((?v0 S3) (?v1 S3)) (= (= (f22 (f3 f12 ?v0) (f3 f13 ?v1)) f1) (= (f17 ?v0 ?v1) f1))))
(assert (forall ((?v0 S3) (?v1 S3)) (= (= (f22 (f3 f12 ?v0) (f3 f13 ?v1)) f1) (= (f17 ?v0 ?v1) f1))))
(assert (forall ((?v0 S3) (?v1 S3) (?v2 S3)) (let ((?v_0 (f4 f10 ?v0))) (=> (= (f19 (f3 ?v_0 ?v1) (f3 ?v_0 ?v2)) f1) (=> (not (= ?v0 f18)) (= (f19 ?v1 ?v2) f1))))))
(assert (forall ((?v0 S3) (?v1 S3)) (=> (= (f22 ?v0 ?v1) f1) (= (f17 (f3 (f4 f5 ?v0) f6) ?v1) f1))))
(assert (forall ((?v0 S3) (?v1 S3)) (= (= (f17 (f3 (f4 f5 ?v0) f6) ?v1) f1) (= (f22 ?v0 ?v1) f1))))
(assert (forall ((?v0 S3) (?v1 S3)) (= (= (f22 ?v0 (f3 (f4 f5 ?v1) f6)) f1) (= (f17 ?v0 ?v1) f1))))
(assert (forall ((?v0 S3) (?v1 S3)) (=> (= (f22 f18 ?v0) f1) (= (= (f3 (f4 f10 ?v0) ?v1) f6) (and (= ?v0 f6) (= ?v1 f6))))))
(assert (forall ((?v0 S3)) (= (= (f22 (f3 (f4 f5 (f3 (f4 f5 f6) ?v0)) ?v0) f18) f1) (= (f22 ?v0 f18) f1))))
(assert (forall ((?v0 S6)) (= (f17 f18 (f7 f8 ?v0)) f1)))
(assert (forall ((?v0 S3)) (= (= (f22 (f3 f13 ?v0) f14) f1) (= (f22 ?v0 f14) f1))))
(assert (forall ((?v0 S3) (?v1 S3)) (= (= (f22 (f3 f13 ?v0) (f3 f12 ?v1)) f1) (= (f22 ?v0 ?v1) f1))))
(assert (forall ((?v0 S3) (?v1 S3)) (= (= (f22 (f3 f13 ?v0) (f3 f12 ?v1)) f1) (= (f22 ?v0 ?v1) f1))))
(assert (forall ((?v0 S3)) (= (= (f22 (f3 f12 ?v0) f14) f1) (= (f22 ?v0 f14) f1))))
(assert (forall ((?v0 S3)) (= (= (f22 f14 (f3 f12 ?v0)) f1) (= (f22 f14 ?v0) f1))))
(assert (forall ((?v0 S3) (?v1 S3)) (= (= (f22 ?v0 (f3 (f4 f5 ?v1) f6)) f1) (or (= (f22 ?v0 ?v1) f1) (= ?v0 ?v1)))))
(assert (forall ((?v0 S6) (?v1 S6) (?v2 S3)) (= (f3 (f4 f5 (f7 f8 ?v0)) (f3 (f4 f5 (f7 f8 ?v1)) ?v2)) (f3 (f4 f5 (f7 f8 (f23 (f24 f25 ?v0) ?v1))) ?v2))))
(assert (forall ((?v0 S6) (?v1 S6)) (= (f3 (f4 f5 (f7 f8 ?v0)) (f7 f8 ?v1)) (f7 f8 (f23 (f24 f25 ?v0) ?v1)))))
(assert (forall ((?v0 S6) (?v1 S6)) (= (f3 (f4 f10 (f7 f8 ?v0)) (f7 f8 ?v1)) (f7 f8 (f23 (f24 f29 ?v0) ?v1)))))
(assert (forall ((?v0 S6) (?v1 S6)) (= (f7 f8 (f23 (f24 f29 ?v0) ?v1)) (f3 (f4 f10 (f7 f8 ?v0)) (f7 f8 ?v1)))))
(assert (= (f7 f8 f26) f6))
(assert (forall ((?v0 S3)) (= (= (f22 (f3 f11 ?v0) f6) f1) (= (f22 ?v0 (f3 f13 f14)) f1))))
(assert (forall ((?v0 S3)) (= (= (f22 f6 (f3 f11 ?v0)) f1) (= (f22 (f3 f13 f14) ?v0) f1))))
(assert (forall ((?v0 S3)) (= (= (f3 (f4 f5 ?v0) ?v0) f18) (= ?v0 f18))))
(assert (forall ((?v0 S3) (?v1 S3)) (= (= (f17 (f3 f13 ?v0) (f3 f13 ?v1)) f1) (= (f17 ?v0 ?v1) f1))))
(assert (forall ((?v0 S3) (?v1 S3)) (= (= (f17 (f3 f13 ?v0) (f3 f13 ?v1)) f1) (= (f17 ?v0 ?v1) f1))))
(assert (= (= (f17 f14 f14) f1) true))
(assert (forall ((?v0 S3) (?v1 S3)) (= (= (f17 (f3 f12 ?v0) (f3 f12 ?v1)) f1) (= (f17 ?v0 ?v1) f1))))
(assert (forall ((?v0 S3) (?v1 S3)) (= (= (f17 (f3 f12 ?v0) (f3 f12 ?v1)) f1) (= (f17 ?v0 ?v1) f1))))
(assert (= f14 f18))
(assert (forall ((?v0 S3)) (= (= (f17 (f3 f11 ?v0) f18) f1) (= (f17 ?v0 f14) f1))))
(assert (forall ((?v0 S3)) (= (= (f17 f18 (f3 f11 ?v0)) f1) (= (f17 f14 ?v0) f1))))
(assert (forall ((?v0 S3) (?v1 S3)) (= (= (f17 (f3 f11 ?v0) (f3 f11 ?v1)) f1) (= (f17 ?v0 ?v1) f1))))
(assert (forall ((?v0 S3) (?v1 S3) (?v2 S3)) (let ((?v_0 (f4 f5 ?v2))) (=> (= (f17 ?v0 ?v1) f1) (= (f17 (f3 ?v_0 ?v0) (f3 ?v_0 ?v1)) f1)))))
(assert (not (= f18 f6)))
(assert (forall ((?v0 S3)) (= (f3 (f4 f5 ?v0) f18) ?v0)))
(assert (forall ((?v0 S3)) (= (f3 (f4 f5 f18) ?v0) ?v0)))
(assert (forall ((?v0 S3) (?v1 S3)) (=> (= (f20 ?v0) f1) (=> (= (f20 ?v1) f1) (= (f20 (f3 (f4 f10 ?v0) ?v1)) f1)))))
(assert (forall ((?v0 S3) (?v1 S3)) (= (= (f3 f11 ?v0) (f3 f11 ?v1)) (= ?v0 ?v1))))
(assert (forall ((?v0 S3) (?v1 S6)) (let ((?v_0 (f27 f28 ?v0))) (= (= ?v_0 ?v1) (= ?v1 ?v_0)))))
(assert (forall ((?v0 S3) (?v1 S3)) (let ((?v_0 (f3 f11 ?v0))) (= (= ?v_0 ?v1) (= ?v1 ?v_0)))))
(assert (forall ((?v0 S3) (?v1 S3)) (= (= (f3 f13 ?v0) (f3 f13 ?v1)) (= ?v0 ?v1))))
(assert (= (= f14 f14) true))
(assert (forall ((?v0 S3) (?v1 S3)) (= (= (f3 f12 ?v0) (f3 f12 ?v1)) (= ?v0 ?v1))))
(assert (forall ((?v0 S3) (?v1 S3) (?v2 S3)) (let ((?v_0 (f4 f10 ?v0))) (= (f3 (f4 f10 (f3 ?v_0 ?v1)) ?v2) (f3 ?v_0 (f3 (f4 f10 ?v1) ?v2))))))
(assert (forall ((?v0 S3) (?v1 S3)) (= (f3 (f4 f10 ?v0) ?v1) (f3 (f4 f10 ?v1) ?v0))))
(assert (forall ((?v0 S3)) (= (f3 f11 ?v0) ?v0)))
(assert (forall ((?v0 S3) (?v1 S3) (?v2 S3)) (let ((?v_0 (f4 f5 ?v0))) (= (f3 (f4 f5 (f3 ?v_0 ?v1)) ?v2) (f3 ?v_0 (f3 (f4 f5 ?v1) ?v2))))))
(assert (forall ((?v0 S3) (?v1 S3) (?v2 S3)) (let ((?v_1 (f4 f5 ?v0)) (?v_0 (f4 f5 ?v1))) (= (f3 ?v_1 (f3 ?v_0 ?v2)) (f3 ?v_0 (f3 ?v_1 ?v2))))))
(assert (forall ((?v0 S3) (?v1 S3)) (= (f3 (f4 f5 ?v0) ?v1) (f3 (f4 f5 ?v1) ?v0))))
(assert (forall ((?v0 S6) (?v1 S6)) (= (= (f7 f8 ?v0) (f7 f8 ?v1)) (= ?v0 ?v1))))
(assert (forall ((?v0 S3) (?v1 S3) (?v2 S3) (?v3 S3) (?v4 S3)) (let ((?v_0 (f4 f5 ?v2))) (=> (= (f19 ?v0 ?v1) f1) (= (= (f19 ?v0 (f3 ?v_0 ?v3)) f1) (= (f19 ?v0 (f3 (f4 f5 (f3 ?v_0 (f3 (f4 f10 ?v4) ?v1))) ?v3)) f1))))))
(assert (forall ((?v0 S3) (?v1 S3) (?v2 S3)) (= (= (f19 ?v0 (f3 (f4 f5 ?v1) (f3 (f4 f10 ?v0) ?v2))) f1) (= (f19 ?v0 ?v1) f1))))
(assert (forall ((?v0 S3)) (= (= (f17 f14 (f3 f13 ?v0)) f1) (= (f17 f14 ?v0) f1))))
(assert (forall ((?v0 S3) (?v1 S3)) (= (= (f17 (f3 f12 ?v0) (f3 f13 ?v1)) f1) (= (f17 ?v0 ?v1) f1))))
(assert (forall ((?v0 S3) (?v1 S3)) (= (= (f17 (f3 f12 ?v0) (f3 f13 ?v1)) f1) (= (f17 ?v0 ?v1) f1))))
(assert (forall ((?v0 S3)) (= (= (f17 (f3 f12 ?v0) f14) f1) (= (f17 ?v0 f14) f1))))
(assert (forall ((?v0 S3)) (= (= (f17 f14 (f3 f12 ?v0)) f1) (= (f17 f14 ?v0) f1))))
(assert (= (f3 f11 f14) f18))
(assert (= (f27 f28 f14) f21))
(assert (= (f3 f11 f14) f18))
(assert (= f18 (f3 f11 f14)))
(assert (forall ((?v0 S3) (?v1 S3)) (= (= (f17 ?v0 ?v1) f1) (exists ((?v2 S6)) (= ?v1 (f3 (f4 f5 ?v0) (f7 f8 ?v2)))))))
(assert (forall ((?v0 S3)) (not (= (f3 (f4 f5 (f3 (f4 f5 f6) ?v0)) ?v0) f18))))
(assert (forall ((?v0 S3)) (= (= (f17 (f3 f11 ?v0) f6) f1) (= (f17 ?v0 (f3 f13 f14)) f1))))
(assert (forall ((?v0 S3)) (= (= (f17 f6 (f3 f11 ?v0)) f1) (= (f17 (f3 f13 f14) ?v0) f1))))
(assert (forall ((?v0 S3)) (let ((?v_0 (f3 f11 ?v0))) (= (f3 f11 (f3 f12 ?v0)) (f3 (f4 f5 (f3 (f4 f5 f18) ?v_0)) ?v_0)))))
(check-sat)
(exit)
